Route #1: 27 16 35 48 32 36 3
Route #2: 13 49 33 11 55 20 31 34 54 30 2
Route #3: 43 23 50 22 38 9 12 5 40
Route #4: 46 28 14 44 51 17 8 10 18
Route #5: 19 7 15 37 45 24 53
Route #6: 1 52 21 26 4 39 47 42 29
Route #7: 41 6 25
Cost 721